% demand
num_movements = 30;
loading_factor = [1700, 1050, 1950, 1200, 1100, 1700, 1150, 950, 1150, 1600, 1850, 900, 1400, 1800, 1300, 1500, 800, 2000, 1050, 1100, 1400, 1350, 1250, 1100, 1900, 1100, 850, 1950, 1900, 1050];
pickup_time = [0, 0, 0, 0, 0, 1, 1, 1, 2, 2, 2, 3, 3, 3, 3, 5, 5, 6, 6, 6, 8, 8, 8, 8, 8, 10, 10, 10, 10, 10];
delivery_time = [1, 2, 2, 1, 1, 2, 3, 2, 3, 7, 3, 5, 5, 6, 6, 6, 6, 7, 7, 8, 10, 10, 10, 10, 10, 12, 12, 12, 12, 11];

% transporter definition
total_capacity = 7000;
num_decks = 3;
capacity = [3000, 1000, 3000];

% ways out of decks
num_ways_out = 1;
paths_out = array3d(decks, ways_out, decks, [
% ways out of deck d1
2, 3, 0, 

% ways out of deck d2
3, 0, 0, 

% ways out of deck d3
0, 0, 0,	

]);

